<number of tasks>
50

<cycle time>
1000

<order strength>
0.195


<task times>
1 212
2 244
3 67
4 297
5 492
6 184
7 270
8 102
9 34
10 135
11 21
12 321
13 93
14 290
15 90
16 108
17 280
18 229
19 152
20 371
21 390
22 214
23 81
24 30
25 161
26 541
27 474
28 514
29 114
30 411
31 301
32 101
33 243
34 164
35 501
36 215
37 516
38 198
39 182
40 163
41 201
42 182
43 359
44 60
45 165
46 26
47 182
48 116
49 261
50 174

<precedence relations>
1,5
1,19
1,38
2,7
3,4
3,6
3,8
3,9
3,10
3,11
4,14
4,16
5,34
5,39
7,12
8,14
8,15
10,38
11,13
11,29
12,24
13,18
13,20
14,21
14,34
14,41
15,18
16,17
16,19
16,22
16,23
16,25
17,28
17,47
18,27
18,43
19,29
19,31
21,37
22,28
23,32
23,33
24,26
25,30
26,37
29,35
29,39
29,40
30,34
30,38
30,41
31,36
34,44
35,43
35,45
37,47
40,46
41,42
44,48
44,49
45,50

<end>
